
;this file is automatically generated: Mon Feb 10 17:02:04 CST 2020

;declarations generated

(declare-fun oclExcludes ( Int Int) Bool)
(declare-fun Cardinality ( Int) Int)
(declare-fun type_d609eb17_4c8e_489c_873e_f3545271f1f7_Class4 ( Int) Bool)
(declare-fun class4_Class4IntAttr3 ( Int) Int)
(declare-fun obj_cfcc3b73_2c3b_4163_bdde_9b8f5fc27839 ( Int) Int)
(declare-fun oclSelect ( Int Bool) Int)
(declare-fun class4_Class4BoolAttr0 ( Int) Bool)
(declare-fun class4_Class4BoolAttr1 ( Int) Bool)
(declare-fun Enum0 ( Int) Int)
(declare-fun Enum1 ( Int) Int)
(declare-fun container_ ( Int) Int)
(declare-fun oclIncludes ( Int Int) Bool)
(declare-fun ObjAt ( Int Int) Int)

;formula(s) generated
(assert (! (forall ((v Int)) (=> ( type_d609eb17_4c8e_489c_873e_f3545271f1f7_Class4 v )  ( class4_Class4BoolAttr1 ( obj_cfcc3b73_2c3b_4163_bdde_9b8f5fc27839 v )  ) )):named l0))
(assert (! (forall ((v Int)) (=> ( type_d609eb17_4c8e_489c_873e_f3545271f1f7_Class4 v )  (and ( class4_Class4BoolAttr1 ( obj_cfcc3b73_2c3b_4163_bdde_9b8f5fc27839 v )  )  (and (forall ((v Int)) (=> ( type_d609eb17_4c8e_489c_873e_f3545271f1f7_Class4 v )  (>= ( class4_Class4IntAttr3 ( obj_cfcc3b73_2c3b_4163_bdde_9b8f5fc27839 v )  )  3))) (forall ((v Int)) (=> ( type_d609eb17_4c8e_489c_873e_f3545271f1f7_Class4 v )  ( class4_Class4BoolAttr0 ( obj_cfcc3b73_2c3b_4163_bdde_9b8f5fc27839 v )  ) )))))):named l1))
(assert (! (forall ((v Int)) (=> ( type_d609eb17_4c8e_489c_873e_f3545271f1f7_Class4 v )  (not ( class4_Class4BoolAttr1 ( obj_cfcc3b73_2c3b_4163_bdde_9b8f5fc27839 v )  )  ))):named l2))
(assert (exists ((o Int)) ( type_d609eb17_4c8e_489c_873e_f3545271f1f7_Class4 ( obj_cfcc3b73_2c3b_4163_bdde_9b8f5fc27839 o )  ) ))

 ;end of formula 